97 18 162 70 25 103 46 17 144 85 73 69 65 189 66 100 28 105 156 142 106 56 199 67 140 133 78 182 125 107 104 47 168 119 59 99 58 123 92 3 195 116 187 158 170 155 136 61 121 186 167 188 52 24 81 19 109 11 91 147 50 42 198 15 194 115 163 27 88 96 57 192 157 38 197 30 161 7 22 131 37 2 5 151 68 181 63 183 166 176 95 34 177 31 32 6 98 33 117 150 130 122 1 112 178 185 94 74 137 134 45 39 149 143 72 174 135 43 160 102 21 193 36 29 113 190 110 146 82 191 55 4 145 89 75 71 159 13 124 132 60 86 9 80 12 77 51 14 179 40 173 54 84 8 53 108 127 184 62 49 16 165 83 164 87 64 0 175 93 26 153 41 76 141 20 23 128 138 180 35 120 148 129 169 90 154 101 118 10 196 126 79 171 139 48 44 152 114 172 111